Data path: /scratch/opt/lxu/CFLG/benchmarks/city
Instance: city_479.txt
Result path: /scratch/opt/lxu/CFLG/results/city
Solver: Gurobi
Time limit: 7200
Formulation: LEFPAV
Cover: Small
julia --project=. src/main.jl /scratch/opt/lxu/CFLG/benchmarks/city city_479.txt /scratch/opt/lxu/CFLG/results/city Gurobi 7200 LEFPAV Small
The latest version of Julia in the `release` channel is 1.11.5+0.x64.linux.gnu. You currently have `1.11.4+0.x64.linux.gnu` installed. Run:

  juliaup update

in your terminal shell to install Julia 1.11.5+0.x64.linux.gnu and update the `release` channel to that version.
/scratch/opt/lxu/CFLG/benchmarks/city Gurobi 7200.0 /scratch/opt/lxu/CFLG/results/city city_479.txt LEFPAV Small
/scratch/opt/lxu/CFLG/benchmarks/city/city_479.txt

 read graph
data loaded


after absorb:310 374

max_piece:76
problem_graph/original graph: node: 368/374 edge: 473/479 dlt: 0.040567567689340535 break_avg_len: 0.1643286674265885 break_max_len: 3.033657483813635Vbar/V, Ebar/E(284, 368, 389, 473)
Set parameter TokenServer to value "solice01.zib.de"
Set parameter Threads to value 1
Set parameter OutputFlag to value 1
Gurobi Optimizer version 12.0.1 build v12.0.1rc0 (linux64 - "Debian GNU/Linux 12 (bookworm)")

CPU model: Intel(R) Xeon(R) Gold 5122 CPU @ 3.60GHz, instruction set [SSE2|AVX|AVX2|AVX512]
Thread count: 8 physical cores, 16 logical processors, using up to 1 threads

Non-default parameters:
Threads  1

Optimize a model with 785 rows, 1335 columns and 2225 nonzeros
Model fingerprint: 0xea3b8735
Coefficient statistics:
  Matrix range     [1e+00, 1e+00]
  Objective range  [1e+00, 1e+00]
  Bounds range     [1e+00, 1e+00]
  RHS range        [1e+00, 1e+00]
Presolve removed 785 rows and 1335 columns
Presolve time: 0.00s
Presolve: All rows and columns removed
Iteration    Objective       Primal Inf.    Dual Inf.      Time
       0    5.6000000e+01   0.000000e+00   0.000000e+00      0s

Solved in 0 iterations and 0.00 seconds (0.00 work units)
Optimal objective  5.600000000e+01

User-callback calls 35, time in user-callback 0.01 sec
elapsed CPU time: 1.465362 seconds
Set parameter TokenServer to value "solice01.zib.de"
Set parameter Threads to value 1
Set parameter OutputFlag to value 1
Set parameter MIPGap to value 0.0001
Set parameter MIPGapAbs to value 0.999998
Set parameter TimeLimit to value 7198.534638

 more cuts: false 0.040567567689340535 false
is_attach:trueformulation:LEFPAV0 445 0
Set parameter PreCrush to value 1

 model loaded

Gurobi Optimizer version 12.0.1 build v12.0.1rc0 (linux64 - "Debian GNU/Linux 12 (bookworm)")

CPU model: Intel(R) Xeon(R) Gold 5122 CPU @ 3.60GHz, instruction set [SSE2|AVX|AVX2|AVX512]
Thread count: 8 physical cores, 16 logical processors, using up to 1 threads

Non-default parameters:
TimeLimit  7198.534638
MIPGapAbs  0.999998
PreCrush  1
Threads  1

Optimize a model with 6010 rows, 4483 columns and 15395 nonzeros
Model fingerprint: 0x9d3bc81c
Variable types: 1230 continuous, 3253 integer (3253 binary)
Coefficient statistics:
  Matrix range     [1e-06, 3e+00]
  Objective range  [1e+00, 1e+00]
  Bounds range     [2e-04, 3e+00]
  RHS range        [1e-06, 3e+00]
Presolve removed 5781 rows and 4278 columns
Presolve time: 0.05s
Presolved: 229 rows, 205 columns, 952 nonzeros
Variable types: 49 continuous, 156 integer (156 binary)
Found heuristic solution: objective 465.0000000
Found heuristic solution: objective 464.0000000
Found heuristic solution: objective 460.0000000
Found heuristic solution: objective 459.0000000

Root relaxation: objective 4.404454e+02, 179 iterations, 0.00 seconds (0.00 work units)

    Nodes    |    Current Node    |     Objective Bounds      |     Work
 Expl Unexpl |  Obj  Depth IntInf | Incumbent    BestBd   Gap | It/Node Time

     0     0  440.44539    0   48  459.00000  440.44539  4.04%     -    0s
H    0     0                     457.0000000  440.44539  3.62%     -    0s
H    0     0                     451.0000000  440.44539  2.34%     -    0s
H    0     0                     447.0000000  440.44539  1.47%     -    0s
elapsed CPU time: 1.3863326838535291e13 seconds
     0     0  441.83958    0   47  447.00000  441.83958  1.15%     -    0s
H    0     0                     446.0000000  441.83958  0.93%     -    0s
elapsed CPU time: 0.009265 seconds
     0     0  442.13557    0   63  446.00000  442.13557  0.87%     -    0s
H    0     0                     445.0000000  442.18407  0.63%     -    0s
elapsed CPU time: 0.009051 seconds
     0     0  442.19232    0   66  445.00000  442.19232  0.63%     -    0s
elapsed CPU time: 0.008809 seconds
     0     0  442.19922    0   66  445.00000  442.19922  0.63%     -    0s
elapsed CPU time: 0.008725 seconds
     0     0  442.19932    0   66  445.00000  442.19932  0.63%     -    0s
elapsed CPU time: 0.008903 seconds
     0     0  442.50000    0   51  445.00000  442.50000  0.56%     -    0s
elapsed CPU time: 0.008875 seconds
     0     0  443.00000    0   52  445.00000  443.00000  0.45%     -    0s
elapsed CPU time: 0.008845 seconds
     0     0  443.00000    0   41  445.00000  443.00000  0.45%     -    0s
elapsed CPU time: 0.008854 seconds
     0     0  443.00000    0   32  445.00000  443.00000  0.45%     -    0s
elapsed CPU time: 0.008738 seconds
     0     0  443.00000    0   30  445.00000  443.00000  0.45%     -    0s
elapsed CPU time: 0.008798 seconds
H    0     0                     444.0000000  443.00000  0.23%     -    0s
     0     0  443.00000    0   42  444.00000  443.00000  0.23%     -    0s
elapsed CPU time: 0.009163 seconds
     0     0  443.00000    0   37  444.00000  443.00000  0.23%     -    0s
     0     0  443.00000    0   29  444.00000  443.00000  0.23%     -    0s
elapsed CPU time: 0.008941 seconds

Cutting planes:
  User: 1
  Gomory: 3
  Cover: 11
  Implied bound: 1
  Clique: 5
  MIR: 5
  StrongCG: 1
  GUB cover: 5
  RLT: 4

Explored 1 nodes (1000 simplex iterations) in 0.85 seconds (0.07 work units)
Thread count was 1 (of 16 available processors)

Solution count 10: 444 444 445 ... 459

Optimal solution found (tolerance 1.00e-04)
Warning: max constraint violation (1.0000e-06) exceeds tolerance
Best objective 4.440000000000e+02, best bound 4.440000000000e+02, gap 0.0000%

User-callback calls 2452, time in user-callback 1.56 sec

 sepatime1.3863326838535404e13 3215 13
444.0Stat(MathOptInterface.OPTIMAL, 444.0, 444.0, 0.0, 1.3863326838535404e13, 1.465362, 0.8506190776824951, 1, Main.CFLG.LEFPAV, "", #undef)
